p tw 351 23661 170 
1 171 
1 172 
1 173 
1 174 
1 175 
1 176 
1 177 
1 178 
1 179 
1 180 
1 181 
1 182 
1 183 
2 170 
2 184 
2 185 
2 186 
2 187 
2 188 
2 189 
2 190 
2 191 
2 192 
2 193 
2 194 
2 195 
2 196 
3 170 
3 197 
3 198 
3 199 
3 200 
3 201 
3 202 
3 203 
3 204 
3 205 
3 206 
3 207 
3 208 
3 209 
4 170 
4 210 
4 211 
4 212 
4 213 
4 214 
4 215 
4 216 
4 217 
4 218 
4 219 
4 220 
4 221 
4 222 
5 170 
5 223 
5 224 
5 225 
5 226 
5 227 
5 228 
5 229 
5 230 
5 231 
5 232 
5 233 
5 234 
5 235 
6 170 
6 236 
6 237 
6 238 
6 239 
6 240 
6 241 
6 242 
6 243 
6 244 
6 245 
6 246 
6 247 
6 248 
7 170 
7 249 
7 250 
7 251 
7 252 
7 253 
7 254 
7 255 
7 256 
7 257 
7 258 
7 259 
7 260 
7 261 
8 170 
8 262 
8 263 
8 264 
8 265 
8 266 
8 267 
8 268 
8 269 
8 270 
8 271 
8 272 
8 273 
8 274 
9 170 
9 275 
9 276 
9 277 
9 278 
9 279 
9 280 
9 281 
9 282 
9 283 
9 284 
9 285 
9 286 
9 287 
10 170 
10 288 
10 289 
10 290 
10 291 
10 292 
10 293 
10 294 
10 295 
10 296 
10 297 
10 298 
10 299 
10 300 
11 170 
11 301 
11 302 
11 303 
11 304 
11 305 
11 306 
11 307 
11 308 
11 309 
11 310 
11 311 
11 312 
11 313 
12 170 
12 314 
12 315 
12 316 
12 317 
12 318 
12 319 
12 320 
12 321 
12 322 
12 323 
12 324 
12 325 
12 326 
13 170 
13 327 
13 328 
13 329 
13 330 
13 331 
13 332 
13 333 
13 334 
13 335 
13 336 
13 337 
13 338 
13 339 
14 171 
14 184 
14 197 
14 210 
14 223 
14 236 
14 249 
14 262 
14 275 
14 288 
14 301 
14 314 
14 327 
14 340 
15 172 
15 185 
15 198 
15 211 
15 224 
15 237 
15 250 
15 263 
15 276 
15 289 
15 302 
15 315 
15 328 
15 340 
16 173 
16 186 
16 199 
16 212 
16 225 
16 238 
16 251 
16 264 
16 277 
16 290 
16 303 
16 316 
16 329 
16 340 
17 174 
17 187 
17 200 
17 213 
17 226 
17 239 
17 252 
17 265 
17 278 
17 291 
17 304 
17 317 
17 330 
17 340 
18 175 
18 188 
18 201 
18 214 
18 227 
18 240 
18 253 
18 266 
18 279 
18 292 
18 305 
18 318 
18 331 
18 340 
19 176 
19 189 
19 202 
19 215 
19 228 
19 241 
19 254 
19 267 
19 280 
19 293 
19 306 
19 319 
19 332 
19 340 
20 177 
20 190 
20 203 
20 216 
20 229 
20 242 
20 255 
20 268 
20 281 
20 294 
20 307 
20 320 
20 333 
20 340 
21 178 
21 191 
21 204 
21 217 
21 230 
21 243 
21 256 
21 269 
21 282 
21 295 
21 308 
21 321 
21 334 
21 340 
22 179 
22 192 
22 205 
22 218 
22 231 
22 244 
22 257 
22 270 
22 283 
22 296 
22 309 
22 322 
22 335 
22 340 
23 180 
23 193 
23 206 
23 219 
23 232 
23 245 
23 258 
23 271 
23 284 
23 297 
23 310 
23 323 
23 336 
23 340 
24 181 
24 194 
24 207 
24 220 
24 233 
24 246 
24 259 
24 272 
24 285 
24 298 
24 311 
24 324 
24 337 
24 340 
25 182 
25 195 
25 208 
25 221 
25 234 
25 247 
25 260 
25 273 
25 286 
25 299 
25 312 
25 325 
25 338 
25 340 
26 183 
26 196 
26 209 
26 222 
26 235 
26 248 
26 261 
26 274 
26 287 
26 300 
26 313 
26 326 
26 339 
26 340 
27 171 
27 196 
27 198 
27 212 
27 226 
27 240 
27 254 
27 268 
27 282 
27 296 
27 310 
27 324 
27 338 
27 341 
28 183 
28 185 
28 201 
28 219 
28 231 
28 238 
28 260 
28 262 
28 281 
28 298 
28 306 
28 321 
28 330 
28 341 
29 172 
29 188 
29 199 
29 215 
29 233 
29 245 
29 252 
29 274 
29 275 
29 295 
29 312 
29 320 
29 335 
29 341 
30 173 
30 193 
30 202 
30 213 
30 229 
30 247 
30 259 
30 266 
30 276 
30 288 
30 309 
30 326 
30 334 
30 341 
31 174 
31 192 
31 207 
31 216 
31 227 
31 243 
31 261 
31 273 
31 280 
31 290 
31 301 
31 323 
31 328 
31 341 
32 175 
32 186 
32 206 
32 221 
32 230 
32 241 
32 257 
32 263 
32 287 
32 294 
32 304 
32 314 
32 337 
32 341 
33 176 
33 195 
33 200 
33 220 
33 235 
33 244 
33 255 
33 271 
33 277 
33 289 
33 308 
33 318 
33 327 
33 341 
34 177 
34 184 
34 209 
34 214 
34 234 
34 237 
34 258 
34 269 
34 285 
34 291 
34 303 
34 322 
34 332 
34 341 
35 178 
35 190 
35 197 
35 211 
35 228 
35 248 
35 251 
35 272 
35 283 
35 299 
35 305 
35 317 
35 336 
35 341 
36 179 
36 194 
36 204 
36 210 
36 225 
36 242 
36 250 
36 265 
36 286 
36 297 
36 313 
36 319 
36 331 
36 341 
37 180 
37 189 
37 208 
37 218 
37 223 
37 239 
37 256 
37 264 
37 279 
37 300 
37 311 
37 315 
37 333 
37 341 
38 181 
38 191 
38 203 
38 222 
38 232 
38 236 
38 253 
38 270 
38 278 
38 293 
38 302 
38 325 
38 329 
38 341 
39 182 
39 187 
39 205 
39 217 
39 224 
39 246 
39 249 
39 267 
39 284 
39 292 
39 307 
39 316 
39 339 
39 341 
40 171 
40 187 
40 201 
40 215 
40 229 
40 243 
40 257 
40 271 
40 285 
40 299 
40 313 
40 315 
40 329 
40 342 
41 182 
41 185 
41 207 
41 210 
41 228 
41 245 
41 253 
41 268 
41 277 
41 300 
41 304 
41 322 
41 334 
41 342 
42 183 
42 192 
42 199 
42 221 
42 223 
42 242 
42 259 
42 267 
42 282 
42 291 
42 302 
42 318 
42 336 
42 342 
43 172 
43 194 
43 206 
43 213 
43 235 
43 236 
43 256 
43 273 
43 281 
43 296 
43 305 
43 316 
43 332 
43 342 
44 173 
44 190 
44 208 
44 220 
44 227 
44 237 
44 249 
44 270 
44 287 
44 295 
44 310 
44 319 
44 330 
44 342 
45 174 
45 188 
45 204 
45 222 
45 234 
45 241 
45 251 
45 262 
45 284 
45 289 
45 309 
45 324 
45 333 
45 342 
46 175 
46 191 
46 202 
46 218 
46 224 
46 248 
46 255 
46 265 
46 275 
46 298 
46 303 
46 323 
46 338 
46 342 
47 176 
47 196 
47 205 
47 216 
47 232 
47 238 
47 250 
47 269 
47 279 
47 288 
47 312 
47 317 
47 337 
47 342 
48 177 
48 195 
48 198 
48 219 
48 230 
48 246 
48 252 
48 264 
48 283 
48 293 
48 301 
48 326 
48 331 
48 342 
49 178 
49 189 
49 209 
49 212 
49 233 
49 244 
49 260 
49 266 
49 278 
49 297 
49 307 
49 314 
49 328 
49 342 
50 179 
50 186 
50 203 
50 211 
50 226 
50 247 
50 258 
50 274 
50 280 
50 292 
50 311 
50 321 
50 327 
50 342 
51 180 
51 184 
51 200 
51 217 
51 225 
51 240 
51 261 
51 272 
51 276 
51 294 
51 306 
51 325 
51 335 
51 342 
52 181 
52 193 
52 197 
52 214 
52 231 
52 239 
52 254 
52 263 
52 286 
52 290 
52 308 
52 320 
52 339 
52 342 
53 171 
53 193 
53 207 
53 221 
53 235 
53 237 
53 251 
53 265 
53 279 
53 293 
53 307 
53 321 
53 335 
53 343 
54 181 
54 185 
54 208 
54 212 
54 230 
54 242 
54 261 
54 271 
54 275 
54 292 
54 309 
54 317 
54 332 
54 343 
55 182 
55 190 
55 199 
55 222 
55 226 
55 244 
55 256 
55 263 
55 285 
55 288 
55 306 
55 323 
55 331 
55 343 
56 183 
56 189 
56 204 
56 213 
56 224 
56 240 
56 258 
56 270 
56 277 
56 299 
56 301 
56 320 
56 337 
56 343 
57 172 
57 195 
57 203 
57 218 
57 227 
57 238 
57 254 
57 272 
57 284 
57 291 
57 313 
57 314 
57 334 
57 343 
58 173 
58 192 
58 209 
58 217 
58 232 
58 241 
58 252 
58 268 
58 286 
58 298 
58 305 
58 315 
58 327 
58 343 
59 174 
59 184 
59 206 
59 211 
59 231 
59 246 
59 255 
59 266 
59 282 
59 300 
59 312 
59 319 
59 329 
59 343 
60 175 
60 187 
60 197 
60 220 
60 225 
60 245 
60 260 
60 269 
60 280 
60 296 
60 302 
60 326 
60 333 
60 343 
61 176 
61 191 
61 201 
61 210 
61 234 
61 239 
61 259 
61 274 
61 283 
61 294 
61 310 
61 316 
61 328 
61 343 
62 177 
62 186 
62 205 
62 215 
62 223 
62 248 
62 253 
62 273 
62 276 
62 297 
62 308 
62 324 
62 330 
62 343 
63 178 
63 188 
63 200 
63 219 
63 229 
63 236 
63 250 
63 267 
63 287 
63 290 
63 311 
63 322 
63 338 
63 343 
64 179 
64 196 
64 202 
64 214 
64 233 
64 243 
64 249 
64 264 
64 281 
64 289 
64 304 
64 325 
64 336 
64 343 
65 180 
65 194 
65 198 
65 216 
65 228 
65 247 
65 257 
65 262 
65 278 
65 295 
65 303 
65 318 
65 339 
65 343 
66 171 
66 194 
66 208 
66 222 
66 224 
66 238 
66 252 
66 266 
66 280 
66 294 
66 308 
66 322 
66 336 
66 344 
67 180 
67 185 
67 203 
67 215 
67 234 
67 244 
67 249 
67 265 
67 282 
67 290 
67 305 
67 326 
67 337 
67 344 
68 181 
68 195 
68 199 
68 217 
68 229 
68 248 
68 258 
68 262 
68 279 
68 296 
68 304 
68 319 
68 328 
68 344 
69 182 
69 186 
69 209 
69 213 
69 231 
69 243 
69 250 
69 272 
69 275 
69 293 
69 310 
69 318 
69 333 
69 344 
70 183 
70 191 
70 200 
70 211 
70 227 
70 245 
70 257 
70 264 
70 286 
70 288 
70 307 
70 324 
70 332 
70 344 
71 172 
71 190 
71 205 
71 214 
71 225 
71 241 
71 259 
71 271 
71 278 
71 300 
71 301 
71 321 
71 338 
71 344 
72 173 
72 196 
72 204 
72 219 
72 228 
72 239 
72 255 
72 273 
72 285 
72 292 
72 302 
72 314 
72 335 
72 344 
73 174 
73 193 
73 198 
73 218 
73 233 
73 242 
73 253 
73 269 
73 287 
73 299 
73 306 
73 316 
73 327 
73 344 
74 175 
74 184 
74 207 
74 212 
74 232 
74 247 
74 256 
74 267 
74 283 
74 289 
74 313 
74 320 
74 330 
74 344 
75 176 
75 188 
75 197 
75 221 
75 226 
75 246 
75 261 
75 270 
75 281 
75 297 
75 303 
75 315 
75 334 
75 344 
76 177 
76 192 
76 202 
76 210 
76 235 
76 240 
76 260 
76 263 
76 284 
76 295 
76 311 
76 317 
76 329 
76 344 
77 178 
77 187 
77 206 
77 216 
77 223 
77 237 
77 254 
77 274 
77 277 
77 298 
77 309 
77 325 
77 331 
77 344 
78 179 
78 189 
78 201 
78 220 
78 230 
78 236 
78 251 
78 268 
78 276 
78 291 
78 312 
78 323 
78 339 
78 344 
79 171 
79 189 
79 203 
79 217 
79 231 
79 245 
79 259 
79 273 
79 287 
79 289 
79 303 
79 317 
79 331 
79 345 
80 179 
80 185 
80 200 
80 221 
80 232 
80 248 
80 254 
80 266 
80 285 
80 295 
80 301 
80 316 
80 333 
80 345 
81 180 
81 191 
81 199 
81 214 
81 235 
81 246 
81 250 
81 268 
81 280 
81 299 
81 309 
81 314 
81 330 
81 345 
82 181 
82 188 
82 205 
82 213 
82 228 
82 237 
82 260 
82 264 
82 282 
82 294 
82 313 
82 323 
82 327 
82 345 
83 182 
83 184 
83 202 
83 219 
83 227 
83 242 
83 251 
83 274 
83 278 
83 296 
83 308 
83 315 
83 337 
83 345 
84 183 
84 195 
84 197 
84 216 
84 233 
84 241 
84 256 
84 265 
84 276 
84 292 
84 310 
84 322 
84 329 
84 345 
85 172 
85 187 
85 209 
85 210 
85 230 
85 247 
85 255 
85 270 
85 279 
85 290 
85 306 
85 324 
85 336 
85 345 
86 173 
86 194 
86 201 
86 211 
86 223 
86 244 
86 261 
86 269 
86 284 
86 293 
86 304 
86 320 
86 338 
86 345 
87 174 
87 196 
87 208 
87 215 
87 225 
87 236 
87 258 
87 263 
87 283 
87 298 
87 307 
87 318 
87 334 
87 345 
88 175 
88 192 
88 198 
88 222 
88 229 
88 239 
88 249 
88 272 
88 277 
88 297 
88 312 
88 321 
88 332 
88 345 
89 176 
89 190 
89 206 
89 212 
89 224 
89 243 
89 253 
89 262 
89 286 
89 291 
89 311 
89 326 
89 335 
89 345 
90 177 
90 193 
90 204 
90 220 
90 226 
90 238 
90 257 
90 267 
90 275 
90 300 
90 305 
90 325 
90 328 
90 345 
91 178 
91 186 
91 207 
91 218 
91 234 
91 240 
91 252 
91 271 
91 281 
91 288 
91 302 
91 319 
91 339 
91 345 
92 171 
92 186 
92 200 
92 214 
92 228 
92 242 
92 256 
92 270 
92 284 
92 298 
92 312 
92 326 
92 328 
92 346 
93 178 
93 185 
93 202 
93 222 
93 225 
93 246 
93 257 
93 273 
93 279 
93 291 
93 310 
93 320 
93 327 
93 346 
94 179 
94 184 
94 199 
94 216 
94 224 
94 239 
94 260 
94 271 
94 287 
94 293 
94 305 
94 324 
94 334 
94 346 
95 180 
95 192 
95 197 
95 213 
95 230 
95 238 
95 253 
95 274 
95 285 
95 289 
95 307 
95 319 
95 338 
95 346 
96 181 
96 196 
96 206 
96 210 
96 227 
96 244 
96 252 
96 267 
96 276 
96 299 
96 303 
96 321 
96 333 
96 346 
97 182 
97 191 
97 198 
97 220 
97 223 
97 241 
97 258 
97 266 
97 281 
97 290 
97 313 
97 317 
97 335 
97 346 
98 183 
98 193 
98 205 
98 212 
98 234 
98 236 
98 255 
98 272 
98 280 
98 295 
98 304 
98 315 
98 331 
98 346 
99 172 
99 189 
99 207 
99 219 
99 226 
99 248 
99 249 
99 269 
99 286 
99 294 
99 309 
99 318 
99 329 
99 346 
100 173 
100 187 
100 203 
100 221 
100 233 
100 240 
100 250 
100 262 
100 283 
100 300 
100 308 
100 323 
100 332 
100 346 
101 174 
101 190 
101 201 
101 217 
101 235 
101 247 
101 254 
101 264 
101 275 
101 297 
101 302 
101 322 
101 337 
101 346 
102 175 
102 195 
102 204 
102 215 
102 231 
102 237 
102 261 
102 268 
102 278 
102 288 
102 311 
102 316 
102 336 
102 346 
103 176 
103 194 
103 209 
103 218 
103 229 
103 245 
103 251 
103 263 
103 282 
103 292 
103 301 
103 325 
103 330 
103 346 
104 177 
104 188 
104 208 
104 211 
104 232 
104 243 
104 259 
104 265 
104 277 
104 296 
104 306 
104 314 
104 339 
104 346 
105 171 
105 188 
105 202 
105 216 
105 230 
105 244 
105 258 
105 272 
105 286 
105 300 
105 302 
105 316 
105 330 
105 347 
106 177 
106 185 
106 206 
106 217 
106 233 
106 239 
106 251 
106 270 
106 280 
106 288 
106 313 
106 318 
106 338 
106 347 
107 178 
107 196 
107 199 
107 220 
107 231 
107 247 
107 253 
107 265 
107 284 
107 294 
107 301 
107 315 
107 332 
107 347 
108 179 
108 190 
108 198 
108 213 
108 234 
108 245 
108 261 
108 267 
108 279 
108 298 
108 308 
108 314 
108 329 
108 347 
109 180 
109 187 
109 204 
109 212 
109 227 
109 248 
109 259 
109 263 
109 281 
109 293 
109 312 
109 322 
109 327 
109 347 
110 181 
110 184 
110 201 
110 218 
110 226 
110 241 
110 250 
110 273 
110 277 
110 295 
110 307 
110 326 
110 336 
110 347 
111 182 
111 194 
111 197 
111 215 
111 232 
111 240 
111 255 
111 264 
111 287 
111 291 
111 309 
111 321 
111 328 
111 347 
112 183 
112 186 
112 208 
112 210 
112 229 
112 246 
112 254 
112 269 
112 278 
112 289 
112 305 
112 323 
112 335 
112 347 
113 172 
113 193 
113 200 
113 222 
113 223 
113 243 
113 260 
113 268 
113 283 
113 292 
113 303 
113 319 
113 337 
113 347 
114 173 
114 195 
114 207 
114 214 
114 224 
114 236 
114 257 
114 274 
114 282 
114 297 
114 306 
114 317 
114 333 
114 347 
115 174 
115 191 
115 209 
115 221 
115 228 
115 238 
115 249 
115 271 
115 276 
115 296 
115 311 
115 320 
115 331 
115 347 
116 175 
116 189 
116 205 
116 211 
116 235 
116 242 
116 252 
116 262 
116 285 
116 290 
116 310 
116 325 
116 334 
116 347 
117 176 
117 192 
117 203 
117 219 
117 225 
117 237 
117 256 
117 266 
117 275 
117 299 
117 304 
117 324 
117 339 
117 347 
118 171 
118 192 
118 206 
118 220 
118 234 
118 248 
118 250 
118 264 
118 278 
118 292 
118 306 
118 320 
118 334 
118 348 
119 176 
119 185 
119 204 
119 214 
119 223 
119 247 
119 252 
119 272 
119 287 
119 296 
119 307 
119 323 
119 329 
119 348 
120 177 
120 187 
120 199 
120 218 
120 228 
120 236 
120 261 
120 266 
120 286 
120 289 
120 310 
120 321 
120 337 
120 348 
121 178 
121 195 
121 201 
121 213 
121 232 
121 242 
121 249 
121 263 
121 280 
121 300 
121 303 
121 324 
121 335 
121 348 
122 179 
122 193 
122 209 
122 215 
122 227 
122 246 
122 256 
122 262 
122 277 
122 294 
122 302 
122 317 
122 338 
122 348 
123 180 
123 196 
123 207 
123 211 
123 229 
123 241 
123 260 
123 270 
123 275 
123 291 
123 308 
123 316 
123 331 
123 348 
124 181 
124 189 
124 198 
124 221 
124 225 
124 243 
124 255 
124 274 
124 284 
124 288 
124 305 
124 322 
124 330 
124 348 
125 182 
125 188 
125 203 
125 212 
125 235 
125 239 
125 257 
125 269 
125 276 
125 298 
125 301 
125 319 
125 336 
125 348 
126 183 
126 194 
126 202 
126 217 
126 226 
126 237 
126 253 
126 271 
126 283 
126 290 
126 312 
126 314 
126 333 
126 348 
127 172 
127 191 
127 208 
127 216 
127 231 
127 240 
127 251 
127 267 
127 285 
127 297 
127 304 
127 326 
127 327 
127 348 
128 173 
128 184 
128 205 
128 222 
128 230 
128 245 
128 254 
128 265 
128 281 
128 299 
128 311 
128 318 
128 328 
128 348 
129 174 
129 186 
129 197 
129 219 
129 224 
129 244 
129 259 
129 268 
129 279 
129 295 
129 313 
129 325 
129 332 
129 348 
130 175 
130 190 
130 200 
130 210 
130 233 
130 238 
130 258 
130 273 
130 282 
130 293 
130 309 
130 315 
130 339 
130 348 
131 171 
131 190 
131 204 
131 218 
131 232 
131 246 
131 260 
131 274 
131 276 
131 290 
131 304 
131 318 
131 332 
131 349 
132 175 
132 185 
132 209 
132 216 
132 226 
132 236 
132 259 
132 264 
132 284 
132 299 
132 308 
132 319 
132 335 
132 349 
133 176 
133 193 
133 199 
133 211 
133 230 
133 240 
133 249 
133 273 
133 278 
133 298 
133 313 
133 322 
133 333 
133 349 
134 177 
134 191 
134 207 
134 213 
134 225 
134 244 
134 254 
134 262 
134 287 
134 292 
134 312 
134 315 
134 336 
134 349 
135 178 
135 194 
135 205 
135 221 
135 227 
135 239 
135 258 
135 268 
135 275 
135 289 
135 306 
135 326 
135 329 
135 349 
136 179 
136 187 
136 208 
136 219 
136 235 
136 241 
136 253 
136 272 
136 282 
136 288 
136 303 
136 320 
136 328 
136 349 
137 180 
137 186 
137 201 
137 222 
137 233 
137 237 
137 255 
137 267 
137 286 
137 296 
137 301 
137 317 
137 334 
137 349 
138 181 
138 192 
138 200 
138 215 
138 224 
138 247 
138 251 
138 269 
138 281 
138 300 
138 310 
138 314 
138 331 
138 349 
139 182 
139 189 
139 206 
139 214 
139 229 
139 238 
139 261 
139 265 
139 283 
139 295 
139 302 
139 324 
139 327 
139 349 
140 183 
140 184 
140 203 
140 220 
140 228 
140 243 
140 252 
140 263 
140 279 
140 297 
140 309 
140 316 
140 338 
140 349 
141 172 
141 196 
141 197 
141 217 
141 234 
141 242 
141 257 
141 266 
141 277 
141 293 
141 311 
141 323 
141 330 
141 349 
142 173 
142 188 
142 198 
142 210 
142 231 
142 248 
142 256 
142 271 
142 280 
142 291 
142 307 
142 325 
142 337 
142 349 
143 174 
143 195 
143 202 
143 212 
143 223 
143 245 
143 250 
143 270 
143 285 
143 294 
143 305 
143 321 
143 339 
143 349 
144 171 
144 195 
144 209 
144 211 
144 225 
144 239 
144 253 
144 267 
144 281 
144 295 
144 309 
144 323 
144 337 
144 350 
145 174 
145 185 
145 205 
145 220 
145 229 
145 240 
145 256 
145 274 
145 286 
145 293 
145 303 
145 314 
145 336 
145 350 
146 175 
146 194 
146 199 
146 219 
146 234 
146 243 
146 254 
146 270 
146 276 
146 300 
146 307 
146 317 
146 327 
146 350 
147 176 
147 184 
147 208 
147 213 
147 233 
147 248 
147 257 
147 268 
147 284 
147 290 
147 302 
147 321 
147 331 
147 350 
148 177 
148 189 
148 197 
148 222 
148 227 
148 247 
148 250 
148 271 
148 282 
148 298 
148 304 
148 316 
148 335 
148 350 
149 178 
149 193 
149 203 
149 210 
149 224 
149 241 
149 261 
149 264 
149 285 
149 296 
149 312 
149 318 
149 330 
149 350 
150 179 
150 188 
150 207 
150 217 
150 223 
150 238 
150 255 
150 263 
150 278 
150 299 
150 310 
150 326 
150 332 
150 350 
151 180 
151 190 
151 202 
151 221 
151 231 
151 236 
151 252 
151 269 
151 277 
151 292 
151 313 
151 324 
151 328 
151 350 
152 181 
152 186 
152 204 
152 216 
152 235 
152 245 
152 249 
152 266 
152 283 
152 291 
152 306 
152 315 
152 338 
152 350 
153 182 
153 196 
153 200 
153 218 
153 230 
153 237 
153 259 
153 262 
153 280 
153 297 
153 305 
153 320 
153 329 
153 350 
154 183 
154 187 
154 198 
154 214 
154 232 
154 244 
154 251 
154 273 
154 275 
154 294 
154 311 
154 319 
154 334 
154 350 
155 172 
155 192 
155 201 
155 212 
155 228 
155 246 
155 258 
155 265 
155 287 
155 288 
155 308 
155 325 
155 333 
155 350 
156 173 
156 191 
156 206 
156 215 
156 226 
156 242 
156 260 
156 272 
156 279 
156 289 
156 301 
156 322 
156 339 
156 350 
157 171 
157 191 
157 205 
157 219 
157 233 
157 247 
157 261 
157 263 
157 277 
157 291 
157 305 
157 319 
157 333 
157 351 
158 173 
158 185 
158 197 
158 218 
158 235 
158 243 
158 258 
158 267 
158 278 
158 294 
158 312 
158 324 
158 331 
158 351 
159 174 
159 189 
159 199 
159 210 
159 232 
159 237 
159 257 
159 272 
159 281 
159 292 
159 308 
159 326 
159 338 
159 351 
160 175 
160 196 
160 203 
160 213 
160 223 
160 246 
160 251 
160 271 
160 286 
160 295 
160 306 
160 322 
160 328 
160 351 
161 176 
161 186 
161 198 
161 217 
161 227 
161 236 
161 260 
161 265 
161 285 
161 300 
161 309 
161 320 
161 336 
161 351 
162 177 
162 194 
162 200 
162 212 
162 231 
162 241 
162 249 
162 274 
162 279 
162 299 
162 302 
162 323 
162 334 
162 351 
163 178 
163 192 
163 208 
163 214 
163 226 
163 245 
163 255 
163 262 
163 276 
163 293 
163 313 
163 316 
163 337 
163 351 
164 179 
164 195 
164 206 
164 222 
164 228 
164 240 
164 259 
164 269 
164 275 
164 290 
164 307 
164 315 
164 330 
164 351 
165 180 
165 188 
165 209 
165 220 
165 224 
165 242 
165 254 
165 273 
165 283 
165 288 
165 304 
165 321 
165 329 
165 351 
166 181 
166 187 
166 202 
166 211 
166 234 
166 238 
166 256 
166 268 
166 287 
166 297 
166 301 
166 318 
166 335 
166 351 
167 182 
167 193 
167 201 
167 216 
167 225 
167 248 
167 252 
167 270 
167 282 
167 289 
167 311 
167 314 
167 332 
167 351 
168 183 
168 190 
168 207 
168 215 
168 230 
168 239 
168 250 
168 266 
168 284 
168 296 
168 303 
168 325 
168 327 
168 351 
169 172 
169 184 
169 204 
169 221 
169 229 
169 244 
169 253 
169 264 
169 280 
169 298 
169 310 
169 317 
169 339 
169 351 
